<?xml version = "1.0" encoding="UTF-8" standalone="yes"?>
<CPLEXSolution version="1.2">
 <header
   problemName=""
   solutionName="p0"
   solutionIndex="-1"
   objectiveValue="33"
   solutionTypeValue="3"
   solutionTypeString="primal"
   solutionStatusValue="127"
   solutionStatusString="integer feasible solution"
   solutionMethodString="mip"
   primalFeasible="0"
   dualFeasible="0"
   writeLevel="1"/>
 <quality
   epInt="1.0000000000000001e-05"
   epRHS="9.9999999999999995e-07"
   maxIntInfeas="0"
   maxPrimalInfeas="1.000000082740371e-09"
   maxX="33"
   maxSlack="79"/>
 <linearConstraints>
  <constraint index="0" slack="-6.9999999989999999"/>
  <constraint index="1" slack="-6"/>
  <constraint index="2" slack="-3.0000000000000249"/>
  <constraint index="3" slack="-6.9999999999999858"/>
  <constraint index="4" slack="0"/>
  <constraint index="5" slack="-9.0000000000000142"/>
  <constraint index="6" slack="-2.0000000000000249"/>
  <constraint index="7" slack="-0.99999999999998934"/>
  <constraint index="8" slack="0"/>
  <constraint index="9" slack="-4.0000000010000001"/>
  <constraint index="10" slack="-67.999999999999972"/>
  <constraint index="11" slack="-10.000000000000028"/>
  <constraint index="12" slack="-78"/>
  <constraint index="13" slack="0"/>
  <constraint index="14" slack="-57.999999999999972"/>
  <constraint index="15" slack="-15.000000000000028"/>
  <constraint index="16" slack="-51"/>
  <constraint index="17" slack="-25"/>
  <constraint index="18" slack="-5.0000000000000249"/>
  <constraint index="19" slack="-68.999999999999972"/>
  <constraint index="20" slack="-69"/>
  <constraint index="21" slack="0"/>
  <constraint index="22" slack="-62.000000000000028"/>
  <constraint index="23" slack="-9.9999999999999716"/>
  <constraint index="24" slack="-58.999999999999972"/>
  <constraint index="25" slack="-10.000000000000028"/>
  <constraint index="26" slack="-52"/>
  <constraint index="27" slack="-20"/>
  <constraint index="28" slack="-67.000000000000028"/>
  <constraint index="29" slack="2.8421709430404007e-14"/>
  <constraint index="30" slack="1.000000082740371e-09"/>
  <constraint index="31" slack="-73.000000001000004"/>
  <constraint index="32" slack="-64.999999998999982"/>
  <constraint index="33" slack="-8.0000000010000178"/>
  <constraint index="34" slack="-58.999999998999982"/>
  <constraint index="35" slack="-16.000000001000018"/>
  <constraint index="36" slack="-73"/>
  <constraint index="37" slack="0"/>
  <constraint index="38" slack="-56.999999999999986"/>
  <constraint index="39" slack="-11.000000000000014"/>
  <constraint index="40" slack="-50.999999999999986"/>
  <constraint index="41" slack="-19.000000000000014"/>
  <constraint index="42" slack="-65.000000001000004"/>
  <constraint index="43" slack="-2.9999999989999964"/>
  <constraint index="44" slack="-70"/>
  <constraint index="45" slack="0"/>
  <constraint index="46" slack="-1.0000142935950862e-09"/>
  <constraint index="47" slack="-67.999999998999982"/>
  <constraint index="48" slack="-8.0000000010000143"/>
  <constraint index="49" slack="-61.999999998999982"/>
  <constraint index="50" slack="-67.999999998999982"/>
  <constraint index="51" slack="-4.0000000010000178"/>
  <constraint index="52" slack="-6.9999999989999999"/>
  <constraint index="53" slack="-71.000000001000004"/>
  <constraint index="54" slack="-2.9999999989999999"/>
  <constraint index="55" slack="-75.000000001000004"/>
  <constraint index="56" slack="-79"/>
  <constraint index="57" slack="0"/>
  <constraint index="58" slack="-13.000000000000011"/>
  <constraint index="59" slack="-56.999999999999986"/>
  <constraint index="60" slack="-9.0000000000000107"/>
  <constraint index="61" slack="-60.999999999999986"/>
  <constraint index="62" slack="-1.0000000010000107"/>
  <constraint index="63" slack="-69.999999998999982"/>
  <constraint index="64" slack="-76"/>
  <constraint index="65" slack="0"/>
  <constraint index="66" slack="-68.000000001000004"/>
  <constraint index="67" slack="-8.9999999989999964"/>
  <constraint index="68" slack="-72.000000001000004"/>
  <constraint index="69" slack="-4.9999999989999964"/>
  <constraint index="70" slack="-14.000000001"/>
  <constraint index="71" slack="1.0658141036401503e-14"/>
  <constraint index="72" slack="-5.9999999999999858"/>
  <constraint index="73" slack="1.4210854715202004e-14"/>
  <constraint index="74" slack="0"/>
 </linearConstraints>
 <variables>
  <variable name="x_0_0" index="0" value="0"/>
  <variable name="x_0_1" index="1" value="11.000000000000025"/>
  <variable name="x_0_2" index="2" value="1"/>
  <variable name="x_0_3" index="3" value="16.000000000000025"/>
  <variable name="x_0_4" index="4" value="26"/>
  <variable name="x_1_0" index="5" value="7.9999999989999999"/>
  <variable name="x_1_1" index="6" value="0"/>
  <variable name="x_1_2" index="7" value="19.000000000000014"/>
  <variable name="x_1_3" index="8" value="27.000000000000014"/>
  <variable name="x_1_4" index="9" value="10.999999999"/>
  <variable name="x_2_0" index="10" value="16.999999999"/>
  <variable name="x_2_1" index="11" value="23.000000000000011"/>
  <variable name="x_2_2" index="12" value="6"/>
  <variable name="x_2_3" index="13" value="10"/>
  <variable name="x_2_4" index="14" value="18.999999999"/>
  <variable name="z_0_0_1" index="15" value="1"/>
  <variable name="z_0_0_2" index="16" value="1"/>
  <variable name="z_0_0_3" index="17" value="1"/>
  <variable name="z_0_0_4" index="18" value="1"/>
  <variable name="z_0_1_2" index="19" value="-0"/>
  <variable name="z_0_1_3" index="20" value="1"/>
  <variable name="z_0_1_4" index="21" value="1"/>
  <variable name="z_0_2_3" index="22" value="1"/>
  <variable name="z_0_2_4" index="23" value="1"/>
  <variable name="z_0_3_4" index="24" value="1"/>
  <variable name="z_1_0_1" index="25" value="-0"/>
  <variable name="z_1_0_2" index="26" value="1"/>
  <variable name="z_1_0_3" index="27" value="1"/>
  <variable name="z_1_0_4" index="28" value="1"/>
  <variable name="z_1_1_2" index="29" value="1"/>
  <variable name="z_1_1_3" index="30" value="1"/>
  <variable name="z_1_1_4" index="31" value="1"/>
  <variable name="z_1_2_3" index="32" value="1"/>
  <variable name="z_1_2_4" index="33" value="0"/>
  <variable name="z_1_3_4" index="34" value="0"/>
  <variable name="z_2_0_1" index="35" value="1"/>
  <variable name="z_2_0_2" index="36" value="-0"/>
  <variable name="z_2_0_3" index="37" value="-0"/>
  <variable name="z_2_0_4" index="38" value="1"/>
  <variable name="z_2_1_2" index="39" value="0"/>
  <variable name="z_2_1_3" index="40" value="0"/>
  <variable name="z_2_1_4" index="41" value="-0"/>
  <variable name="z_2_2_3" index="42" value="1"/>
  <variable name="z_2_2_4" index="43" value="1"/>
  <variable name="z_2_3_4" index="44" value="1"/>
  <variable name="cmax" index="45" value="33"/>
 </variables>
</CPLEXSolution>
